34 34
21
3 3   0 0 
3 4   3 0 
3 5   31 29
3 6   0 28
3 7   3 4 
3 8   31 21
3 9   3 11
3 10  6 0 
3 11  6 10
3 12  9 22
3 13  6 21
3 14  3 20
3 21  31 0 
3 22  9 0 
3 25  0 3 
3 34  28 0 
4 4   12 19
4 5   12 0 
4 11  12 23
4 14  12 5 
12 34  16 0 
